p edge 1975 1900
e 1 2
e 1 3
e 1 4
e 1 5
e 1 6
e 1 7
e 1 8
e 1 9
e 1 10
e 1 11
e 1 12
e 1 13
e 1 14
e 1 15
e 1 16
e 1 17
e 1 18
e 1 19
e 1 20
e 1 21
e 1 22
e 23 24
e 23 25
e 23 26
e 23 27
e 23 28
e 23 29
e 23 30
e 23 31
e 23 32
e 23 33
e 23 34
e 23 35
e 23 36
e 37 38
e 37 39
e 37 40
e 37 41
e 37 42
e 37 43
e 37 44
e 37 45
e 37 46
e 37 47
e 37 48
e 37 49
e 37 50
e 37 51
e 37 52
e 37 53
e 37 54
e 37 55
e 37 56
e 37 57
e 37 58
e 37 59
e 60 61
e 60 62
e 60 63
e 60 64
e 60 65
e 60 66
e 60 67
e 60 68
e 60 69
e 60 70
e 60 71
e 60 72
e 73 74
e 73 75
e 73 76
e 73 77
e 73 78
e 73 79
e 73 80
e 73 81
e 73 82
e 73 83
e 73 84
e 73 85
e 73 86
e 73 87
e 73 88
e 73 89
e 73 90
e 73 91
e 73 92
e 73 93
e 73 94
e 73 95
e 73 96
e 73 97
e 73 98
e 73 99
e 73 100
e 73 101
e 73 102
e 73 103
e 73 104
e 73 105
e 73 106
e 73 107
e 73 108
e 73 109
e 73 110
e 111 112
e 111 113
e 111 114
e 111 115
e 111 116
e 111 117
e 111 118
e 111 119
e 111 120
e 111 121
e 111 122
e 111 123
e 111 124
e 111 125
e 111 126
e 111 127
e 111 128
e 111 129
e 111 130
e 111 131
e 111 132
e 111 133
e 111 134
e 111 135
e 111 136
e 111 137
e 111 138
e 111 139
e 111 140
e 111 141
e 111 142
e 111 143
e 111 144
e 111 145
e 111 146
e 147 148
e 147 149
e 147 150
e 147 151
e 147 152
e 147 153
e 147 154
e 147 155
e 147 156
e 147 157
e 147 158
e 147 159
e 147 160
e 147 161
e 147 162
e 147 163
e 147 164
e 147 165
e 147 166
e 147 167
e 147 168
e 169 170
e 169 171
e 169 172
e 169 173
e 169 174
e 169 175
e 169 176
e 169 177
e 169 178
e 169 179
e 169 180
e 169 181
e 169 182
e 169 183
e 169 184
e 169 185
e 169 186
e 169 187
e 169 188
e 169 189
e 169 190
e 169 191
e 169 192
e 169 193
e 169 194
e 169 195
e 169 196
e 169 197
e 169 198
e 169 199
e 169 200
e 169 201
e 169 202
e 169 203
e 169 204
e 169 205
e 169 206
e 169 207
e 169 208
e 169 209
e 210 211
e 210 212
e 210 213
e 210 214
e 210 215
e 210 216
e 210 217
e 210 218
e 210 219
e 210 220
e 210 221
e 210 222
e 210 223
e 210 224
e 225 226
e 225 227
e 225 228
e 225 229
e 225 230
e 225 231
e 225 232
e 225 233
e 225 234
e 225 235
e 225 236
e 225 237
e 225 238
e 225 239
e 225 240
e 225 241
e 225 242
e 225 243
e 225 244
e 225 245
e 225 246
e 225 247
e 225 248
e 225 249
e 225 250
e 225 251
e 225 252
e 225 253
e 225 254
e 225 255
e 225 256
e 225 257
e 258 259
e 258 260
e 258 261
e 258 262
e 258 263
e 258 264
e 258 265
e 258 266
e 258 267
e 258 268
e 258 269
e 258 270
e 258 271
e 258 272
e 258 273
e 258 274
e 258 275
e 258 276
e 258 277
e 258 278
e 258 279
e 258 280
e 258 281
e 258 282
e 258 283
e 258 284
e 258 285
e 258 286
e 258 287
e 258 288
e 258 289
e 258 290
e 258 291
e 258 292
e 258 293
e 258 294
e 258 295
e 258 296
e 258 297
e 298 299
e 298 300
e 298 301
e 298 302
e 298 303
e 298 304
e 298 305
e 298 306
e 298 307
e 298 308
e 298 309
e 298 310
e 298 311
e 312 313
e 312 314
e 312 315
e 312 316
e 312 317
e 312 318
e 312 319
e 312 320
e 312 321
e 312 322
e 312 323
e 312 324
e 312 325
e 326 327
e 326 328
e 326 329
e 326 330
e 326 331
e 326 332
e 326 333
e 326 334
e 326 335
e 326 336
e 326 337
e 326 338
e 326 339
e 326 340
e 326 341
e 342 343
e 342 344
e 342 345
e 342 346
e 342 347
e 342 348
e 342 349
e 342 350
e 342 351
e 342 352
e 342 353
e 342 354
e 342 355
e 342 356
e 342 357
e 342 358
e 342 359
e 342 360
e 342 361
e 362 363
e 362 364
e 362 365
e 362 366
e 362 367
e 362 368
e 362 369
e 362 370
e 362 371
e 362 372
e 362 373
e 362 374
e 362 375
e 362 376
e 362 377
e 362 378
e 362 379
e 362 380
e 362 381
e 362 382
e 362 383
e 362 384
e 362 385
e 362 386
e 362 387
e 362 388
e 362 389
e 362 390
e 362 391
e 362 392
e 362 393
e 362 394
e 395 396
e 395 397
e 395 398
e 395 399
e 395 400
e 395 401
e 395 402
e 395 403
e 395 404
e 395 405
e 395 406
e 395 407
e 395 408
e 395 409
e 395 410
e 395 411
e 395 412
e 395 413
e 395 414
e 395 415
e 416 417
e 416 418
e 416 419
e 416 420
e 416 421
e 416 422
e 416 423
e 416 424
e 416 425
e 416 426
e 416 427
e 416 428
e 416 429
e 416 430
e 416 431
e 416 432
e 416 433
e 416 434
e 416 435
e 416 436
e 416 437
e 416 438
e 416 439
e 416 440
e 416 441
e 416 442
e 416 443
e 444 445
e 444 446
e 444 447
e 444 448
e 444 449
e 444 450
e 444 451
e 444 452
e 444 453
e 444 454
e 444 455
e 444 456
e 444 457
e 444 458
e 444 459
e 444 460
e 444 461
e 444 462
e 444 463
e 444 464
e 444 465
e 444 466
e 444 467
e 444 468
e 444 469
e 444 470
e 444 471
e 444 472
e 444 473
e 444 474
e 444 475
e 444 476
e 444 477
e 444 478
e 444 479
e 444 480
e 444 481
e 444 482
e 444 483
e 484 485
e 484 486
e 484 487
e 484 488
e 484 489
e 484 490
e 484 491
e 484 492
e 484 493
e 484 494
e 484 495
e 484 496
e 484 497
e 484 498
e 484 499
e 484 500
e 484 501
e 484 502
e 484 503
e 484 504
e 484 505
e 484 506
e 484 507
e 484 508
e 484 509
e 484 510
e 484 511
e 484 512
e 484 513
e 484 514
e 484 515
e 484 516
e 484 517
e 484 518
e 484 519
e 484 520
e 484 521
e 484 522
e 484 523
e 524 525
e 524 526
e 524 527
e 524 528
e 524 529
e 524 530
e 524 531
e 524 532
e 524 533
e 524 534
e 524 535
e 524 536
e 524 537
e 524 538
e 524 539
e 524 540
e 524 541
e 524 542
e 524 543
e 524 544
e 524 545
e 524 546
e 524 547
e 524 548
e 524 549
e 524 550
e 524 551
e 524 552
e 524 553
e 524 554
e 524 555
e 524 556
e 524 557
e 524 558
e 524 559
e 524 560
e 524 561
e 524 562
e 524 563
e 564 565
e 564 566
e 564 567
e 564 568
e 564 569
e 564 570
e 564 571
e 564 572
e 564 573
e 564 574
e 575 576
e 575 577
e 575 578
e 575 579
e 575 580
e 575 581
e 575 582
e 575 583
e 575 584
e 575 585
e 575 586
e 575 587
e 575 588
e 575 589
e 575 590
e 575 591
e 575 592
e 575 593
e 575 594
e 595 596
e 595 597
e 595 598
e 595 599
e 595 600
e 595 601
e 595 602
e 595 603
e 595 604
e 595 605
e 595 606
e 595 607
e 595 608
e 595 609
e 610 611
e 610 612
e 610 613
e 610 614
e 610 615
e 610 616
e 610 617
e 610 618
e 610 619
e 610 620
e 610 621
e 610 622
e 610 623
e 610 624
e 610 625
e 610 626
e 610 627
e 610 628
e 610 629
e 610 630
e 610 631
e 610 632
e 610 633
e 610 634
e 610 635
e 610 636
e 610 637
e 610 638
e 639 640
e 639 641
e 639 642
e 639 643
e 639 644
e 639 645
e 639 646
e 639 647
e 639 648
e 639 649
e 639 650
e 639 651
e 639 652
e 639 653
e 639 654
e 639 655
e 639 656
e 639 657
e 639 658
e 639 659
e 639 660
e 639 661
e 639 662
e 639 663
e 639 664
e 639 665
e 639 666
e 639 667
e 639 668
e 639 669
e 670 671
e 670 672
e 670 673
e 670 674
e 670 675
e 670 676
e 670 677
e 670 678
e 670 679
e 670 680
e 670 681
e 670 682
e 670 683
e 670 684
e 670 685
e 670 686
e 670 687
e 670 688
e 670 689
e 670 690
e 670 691
e 670 692
e 670 693
e 670 694
e 670 695
e 670 696
e 697 698
e 697 699
e 697 700
e 697 701
e 697 702
e 697 703
e 697 704
e 697 705
e 697 706
e 697 707
e 697 708
e 697 709
e 697 710
e 697 711
e 697 712
e 697 713
e 697 714
e 697 715
e 697 716
e 697 717
e 697 718
e 697 719
e 697 720
e 697 721
e 697 722
e 697 723
e 697 724
e 697 725
e 697 726
e 697 727
e 697 728
e 697 729
e 697 730
e 697 731
e 732 733
e 732 734
e 732 735
e 732 736
e 732 737
e 732 738
e 732 739
e 732 740
e 732 741
e 732 742
e 732 743
e 732 744
e 732 745
e 732 746
e 732 747
e 732 748
e 732 749
e 732 750
e 732 751
e 732 752
e 732 753
e 732 754
e 732 755
e 732 756
e 732 757
e 732 758
e 732 759
e 732 760
e 732 761
e 732 762
e 732 763
e 732 764
e 732 765
e 732 766
e 767 768
e 767 769
e 767 770
e 767 771
e 767 772
e 767 773
e 767 774
e 767 775
e 767 776
e 767 777
e 767 778
e 767 779
e 767 780
e 767 781
e 767 782
e 767 783
e 767 784
e 767 785
e 767 786
e 767 787
e 767 788
e 767 789
e 767 790
e 767 791
e 767 792
e 767 793
e 767 794
e 767 795
e 767 796
e 767 797
e 767 798
e 767 799
e 800 801
e 800 802
e 800 803
e 800 804
e 800 805
e 800 806
e 800 807
e 800 808
e 800 809
e 800 810
e 800 811
e 800 812
e 800 813
e 800 814
e 800 815
e 800 816
e 800 817
e 800 818
e 800 819
e 800 820
e 800 821
e 822 823
e 822 824
e 822 825
e 822 826
e 822 827
e 822 828
e 822 829
e 822 830
e 822 831
e 822 832
e 822 833
e 822 834
e 822 835
e 822 836
e 822 837
e 822 838
e 822 839
e 840 841
e 840 842
e 840 843
e 840 844
e 840 845
e 840 846
e 840 847
e 840 848
e 840 849
e 840 850
e 840 851
e 840 852
e 840 853
e 840 854
e 840 855
e 840 856
e 840 857
e 840 858
e 840 859
e 840 860
e 840 861
e 840 862
e 840 863
e 840 864
e 840 865
e 840 866
e 840 867
e 840 868
e 840 869
e 840 870
e 871 872
e 871 873
e 871 874
e 871 875
e 871 876
e 871 877
e 871 878
e 871 879
e 871 880
e 871 881
e 871 882
e 871 883
e 871 884
e 871 885
e 871 886
e 871 887
e 871 888
e 871 889
e 871 890
e 871 891
e 871 892
e 871 893
e 871 894
e 871 895
e 871 896
e 871 897
e 871 898
e 871 899
e 900 901
e 900 902
e 900 903
e 900 904
e 900 905
e 900 906
e 900 907
e 900 908
e 900 909
e 900 910
e 900 911
e 900 912
e 900 913
e 900 914
e 900 915
e 900 916
e 900 917
e 900 918
e 900 919
e 900 920
e 900 921
e 900 922
e 900 923
e 900 924
e 900 925
e 900 926
e 900 927
e 900 928
e 900 929
e 900 930
e 900 931
e 900 932
e 900 933
e 900 934
e 900 935
e 936 937
e 936 938
e 936 939
e 936 940
e 936 941
e 936 942
e 936 943
e 936 944
e 936 945
e 936 946
e 936 947
e 936 948
e 936 949
e 936 950
e 936 951
e 936 952
e 936 953
e 936 954
e 936 955
e 936 956
e 936 957
e 936 958
e 936 959
e 936 960
e 936 961
e 936 962
e 936 963
e 936 964
e 936 965
e 936 966
e 967 968
e 967 969
e 967 970
e 967 971
e 967 972
e 967 973
e 967 974
e 967 975
e 967 976
e 967 977
e 967 978
e 967 979
e 967 980
e 967 981
e 967 982
e 967 983
e 967 984
e 967 985
e 967 986
e 967 987
e 967 988
e 967 989
e 967 990
e 967 991
e 992 993
e 992 994
e 992 995
e 992 996
e 992 997
e 992 998
e 992 999
e 992 1000
e 992 1001
e 992 1002
e 992 1003
e 992 1004
e 992 1005
e 992 1006
e 992 1007
e 992 1008
e 1009 1010
e 1009 1011
e 1009 1012
e 1009 1013
e 1009 1014
e 1009 1015
e 1009 1016
e 1009 1017
e 1009 1018
e 1009 1019
e 1009 1020
e 1009 1021
e 1009 1022
e 1009 1023
e 1009 1024
e 1009 1025
e 1009 1026
e 1009 1027
e 1009 1028
e 1009 1029
e 1009 1030
e 1009 1031
e 1009 1032
e 1009 1033
e 1009 1034
e 1009 1035
e 1009 1036
e 1009 1037
e 1009 1038
e 1009 1039
e 1009 1040
e 1009 1041
e 1009 1042
e 1009 1043
e 1044 1045
e 1044 1046
e 1044 1047
e 1044 1048
e 1044 1049
e 1044 1050
e 1044 1051
e 1044 1052
e 1044 1053
e 1044 1054
e 1044 1055
e 1044 1056
e 1057 1058
e 1057 1059
e 1057 1060
e 1057 1061
e 1057 1062
e 1057 1063
e 1057 1064
e 1057 1065
e 1057 1066
e 1057 1067
e 1057 1068
e 1057 1069
e 1057 1070
e 1071 1072
e 1071 1073
e 1071 1074
e 1071 1075
e 1071 1076
e 1071 1077
e 1071 1078
e 1071 1079
e 1071 1080
e 1071 1081
e 1071 1082
e 1071 1083
e 1071 1084
e 1071 1085
e 1071 1086
e 1071 1087
e 1071 1088
e 1071 1089
e 1090 1091
e 1090 1092
e 1090 1093
e 1090 1094
e 1090 1095
e 1090 1096
e 1090 1097
e 1090 1098
e 1090 1099
e 1090 1100
e 1090 1101
e 1090 1102
e 1090 1103
e 1090 1104
e 1090 1105
e 1090 1106
e 1090 1107
e 1090 1108
e 1090 1109
e 1090 1110
e 1090 1111
e 1090 1112
e 1090 1113
e 1090 1114
e 1090 1115
e 1090 1116
e 1090 1117
e 1090 1118
e 1090 1119
e 1090 1120
e 1090 1121
e 1090 1122
e 1123 1124
e 1123 1125
e 1123 1126
e 1123 1127
e 1123 1128
e 1123 1129
e 1123 1130
e 1123 1131
e 1123 1132
e 1123 1133
e 1123 1134
e 1123 1135
e 1123 1136
e 1123 1137
e 1123 1138
e 1123 1139
e 1123 1140
e 1123 1141
e 1123 1142
e 1123 1143
e 1123 1144
e 1123 1145
e 1123 1146
e 1123 1147
e 1123 1148
e 1123 1149
e 1123 1150
e 1123 1151
e 1123 1152
e 1123 1153
e 1123 1154
e 1123 1155
e 1123 1156
e 1123 1157
e 1123 1158
e 1123 1159
e 1123 1160
e 1161 1162
e 1161 1163
e 1161 1164
e 1161 1165
e 1161 1166
e 1161 1167
e 1161 1168
e 1161 1169
e 1161 1170
e 1161 1171
e 1161 1172
e 1161 1173
e 1161 1174
e 1161 1175
e 1161 1176
e 1161 1177
e 1161 1178
e 1161 1179
e 1161 1180
e 1161 1181
e 1161 1182
e 1161 1183
e 1161 1184
e 1161 1185
e 1161 1186
e 1161 1187
e 1161 1188
e 1161 1189
e 1161 1190
e 1161 1191
e 1161 1192
e 1161 1193
e 1161 1194
e 1195 1196
e 1195 1197
e 1195 1198
e 1195 1199
e 1195 1200
e 1195 1201
e 1195 1202
e 1195 1203
e 1195 1204
e 1195 1205
e 1195 1206
e 1195 1207
e 1195 1208
e 1195 1209
e 1195 1210
e 1195 1211
e 1195 1212
e 1195 1213
e 1195 1214
e 1195 1215
e 1195 1216
e 1195 1217
e 1195 1218
e 1195 1219
e 1195 1220
e 1195 1221
e 1195 1222
e 1195 1223
e 1195 1224
e 1195 1225
e 1195 1226
e 1195 1227
e 1195 1228
e 1195 1229
e 1195 1230
e 1231 1232
e 1231 1233
e 1231 1234
e 1231 1235
e 1231 1236
e 1231 1237
e 1231 1238
e 1231 1239
e 1231 1240
e 1231 1241
e 1231 1242
e 1231 1243
e 1231 1244
e 1231 1245
e 1231 1246
e 1231 1247
e 1248 1249
e 1248 1250
e 1248 1251
e 1248 1252
e 1248 1253
e 1248 1254
e 1248 1255
e 1248 1256
e 1248 1257
e 1248 1258
e 1248 1259
e 1248 1260
e 1248 1261
e 1248 1262
e 1248 1263
e 1248 1264
e 1248 1265
e 1248 1266
e 1248 1267
e 1248 1268
e 1248 1269
e 1248 1270
e 1271 1272
e 1271 1273
e 1271 1274
e 1271 1275
e 1271 1276
e 1271 1277
e 1271 1278
e 1271 1279
e 1271 1280
e 1271 1281
e 1271 1282
e 1271 1283
e 1271 1284
e 1271 1285
e 1286 1287
e 1286 1288
e 1286 1289
e 1286 1290
e 1286 1291
e 1286 1292
e 1286 1293
e 1286 1294
e 1286 1295
e 1286 1296
e 1286 1297
e 1286 1298
e 1286 1299
e 1286 1300
e 1286 1301
e 1286 1302
e 1286 1303
e 1286 1304
e 1286 1305
e 1286 1306
e 1286 1307
e 1286 1308
e 1286 1309
e 1286 1310
e 1286 1311
e 1286 1312
e 1286 1313
e 1286 1314
e 1286 1315
e 1286 1316
e 1317 1318
e 1317 1319
e 1317 1320
e 1317 1321
e 1317 1322
e 1317 1323
e 1317 1324
e 1317 1325
e 1317 1326
e 1317 1327
e 1317 1328
e 1317 1329
e 1317 1330
e 1317 1331
e 1317 1332
e 1317 1333
e 1317 1334
e 1317 1335
e 1317 1336
e 1317 1337
e 1317 1338
e 1317 1339
e 1317 1340
e 1317 1341
e 1317 1342
e 1317 1343
e 1344 1345
e 1344 1346
e 1344 1347
e 1344 1348
e 1344 1349
e 1344 1350
e 1344 1351
e 1344 1352
e 1344 1353
e 1344 1354
e 1344 1355
e 1344 1356
e 1344 1357
e 1344 1358
e 1344 1359
e 1344 1360
e 1344 1361
e 1344 1362
e 1363 1364
e 1363 1365
e 1363 1366
e 1363 1367
e 1363 1368
e 1363 1369
e 1363 1370
e 1363 1371
e 1363 1372
e 1363 1373
e 1363 1374
e 1363 1375
e 1363 1376
e 1363 1377
e 1363 1378
e 1363 1379
e 1363 1380
e 1363 1381
e 1363 1382
e 1363 1383
e 1363 1384
e 1363 1385
e 1363 1386
e 1363 1387
e 1363 1388
e 1363 1389
e 1363 1390
e 1363 1391
e 1363 1392
e 1363 1393
e 1363 1394
e 1363 1395
e 1396 1397
e 1396 1398
e 1396 1399
e 1396 1400
e 1396 1401
e 1396 1402
e 1396 1403
e 1396 1404
e 1396 1405
e 1396 1406
e 1396 1407
e 1396 1408
e 1396 1409
e 1396 1410
e 1396 1411
e 1396 1412
e 1396 1413
e 1396 1414
e 1396 1415
e 1396 1416
e 1396 1417
e 1396 1418
e 1396 1419
e 1396 1420
e 1396 1421
e 1396 1422
e 1396 1423
e 1396 1424
e 1396 1425
e 1396 1426
e 1396 1427
e 1396 1428
e 1396 1429
e 1396 1430
e 1396 1431
e 1396 1432
e 1433 1434
e 1433 1435
e 1433 1436
e 1433 1437
e 1433 1438
e 1433 1439
e 1433 1440
e 1433 1441
e 1433 1442
e 1433 1443
e 1433 1444
e 1433 1445
e 1433 1446
e 1433 1447
e 1433 1448
e 1433 1449
e 1433 1450
e 1433 1451
e 1433 1452
e 1433 1453
e 1433 1454
e 1433 1455
e 1433 1456
e 1433 1457
e 1433 1458
e 1433 1459
e 1433 1460
e 1433 1461
e 1433 1462
e 1433 1463
e 1433 1464
e 1433 1465
e 1433 1466
e 1433 1467
e 1433 1468
e 1433 1469
e 1433 1470
e 1471 1472
e 1471 1473
e 1471 1474
e 1471 1475
e 1471 1476
e 1471 1477
e 1471 1478
e 1471 1479
e 1471 1480
e 1471 1481
e 1471 1482
e 1471 1483
e 1471 1484
e 1471 1485
e 1471 1486
e 1471 1487
e 1488 1489
e 1488 1490
e 1488 1491
e 1488 1492
e 1488 1493
e 1488 1494
e 1488 1495
e 1488 1496
e 1488 1497
e 1488 1498
e 1488 1499
e 1488 1500
e 1488 1501
e 1488 1502
e 1488 1503
e 1488 1504
e 1488 1505
e 1488 1506
e 1488 1507
e 1488 1508
e 1488 1509
e 1488 1510
e 1488 1511
e 1488 1512
e 1488 1513
e 1488 1514
e 1488 1515
e 1516 1517
e 1516 1518
e 1516 1519
e 1516 1520
e 1516 1521
e 1516 1522
e 1516 1523
e 1516 1524
e 1516 1525
e 1516 1526
e 1516 1527
e 1516 1528
e 1516 1529
e 1530 1531
e 1530 1532
e 1530 1533
e 1530 1534
e 1530 1535
e 1530 1536
e 1530 1537
e 1530 1538
e 1530 1539
e 1530 1540
e 1530 1541
e 1530 1542
e 1543 1544
e 1543 1545
e 1543 1546
e 1543 1547
e 1543 1548
e 1543 1549
e 1543 1550
e 1543 1551
e 1543 1552
e 1543 1553
e 1543 1554
e 1543 1555
e 1543 1556
e 1543 1557
e 1543 1558
e 1543 1559
e 1543 1560
e 1543 1561
e 1543 1562
e 1563 1564
e 1563 1565
e 1563 1566
e 1563 1567
e 1563 1568
e 1563 1569
e 1563 1570
e 1563 1571
e 1563 1572
e 1563 1573
e 1563 1574
e 1563 1575
e 1563 1576
e 1563 1577
e 1563 1578
e 1563 1579
e 1563 1580
e 1581 1582
e 1581 1583
e 1581 1584
e 1581 1585
e 1581 1586
e 1581 1587
e 1581 1588
e 1581 1589
e 1581 1590
e 1581 1591
e 1581 1592
e 1581 1593
e 1581 1594
e 1581 1595
e 1581 1596
e 1581 1597
e 1581 1598
e 1581 1599
e 1581 1600
e 1581 1601
e 1581 1602
e 1581 1603
e 1581 1604
e 1581 1605
e 1581 1606
e 1581 1607
e 1581 1608
e 1581 1609
e 1581 1610
e 1581 1611
e 1581 1612
e 1613 1614
e 1613 1615
e 1613 1616
e 1613 1617
e 1613 1618
e 1613 1619
e 1613 1620
e 1613 1621
e 1613 1622
e 1613 1623
e 1613 1624
e 1613 1625
e 1613 1626
e 1613 1627
e 1613 1628
e 1613 1629
e 1613 1630
e 1613 1631
e 1613 1632
e 1613 1633
e 1613 1634
e 1613 1635
e 1613 1636
e 1613 1637
e 1613 1638
e 1613 1639
e 1613 1640
e 1613 1641
e 1613 1642
e 1613 1643
e 1613 1644
e 1613 1645
e 1646 1647
e 1646 1648
e 1646 1649
e 1646 1650
e 1646 1651
e 1646 1652
e 1646 1653
e 1646 1654
e 1646 1655
e 1646 1656
e 1646 1657
e 1646 1658
e 1646 1659
e 1646 1660
e 1646 1661
e 1646 1662
e 1646 1663
e 1646 1664
e 1646 1665
e 1646 1666
e 1646 1667
e 1646 1668
e 1646 1669
e 1646 1670
e 1646 1671
e 1646 1672
e 1646 1673
e 1646 1674
e 1646 1675
e 1646 1676
e 1646 1677
e 1646 1678
e 1646 1679
e 1646 1680
e 1646 1681
e 1646 1682
e 1683 1684
e 1683 1685
e 1683 1686
e 1683 1687
e 1683 1688
e 1683 1689
e 1683 1690
e 1683 1691
e 1683 1692
e 1683 1693
e 1683 1694
e 1683 1695
e 1683 1696
e 1683 1697
e 1683 1698
e 1683 1699
e 1700 1701
e 1700 1702
e 1700 1703
e 1700 1704
e 1700 1705
e 1700 1706
e 1700 1707
e 1700 1708
e 1700 1709
e 1700 1710
e 1700 1711
e 1700 1712
e 1700 1713
e 1700 1714
e 1700 1715
e 1716 1717
e 1716 1718
e 1716 1719
e 1716 1720
e 1716 1721
e 1716 1722
e 1716 1723
e 1716 1724
e 1716 1725
e 1716 1726
e 1716 1727
e 1716 1728
e 1729 1730
e 1729 1731
e 1729 1732
e 1729 1733
e 1729 1734
e 1729 1735
e 1729 1736
e 1729 1737
e 1729 1738
e 1729 1739
e 1729 1740
e 1729 1741
e 1729 1742
e 1729 1743
e 1729 1744
e 1729 1745
e 1729 1746
e 1729 1747
e 1729 1748
e 1729 1749
e 1729 1750
e 1729 1751
e 1729 1752
e 1729 1753
e 1729 1754
e 1729 1755
e 1756 1757
e 1756 1758
e 1756 1759
e 1756 1760
e 1756 1761
e 1756 1762
e 1756 1763
e 1756 1764
e 1756 1765
e 1756 1766
e 1756 1767
e 1756 1768
e 1756 1769
e 1756 1770
e 1756 1771
e 1756 1772
e 1756 1773
e 1756 1774
e 1756 1775
e 1756 1776
e 1756 1777
e 1756 1778
e 1756 1779
e 1756 1780
e 1756 1781
e 1756 1782
e 1756 1783
e 1756 1784
e 1756 1785
e 1756 1786
e 1756 1787
e 1756 1788
e 1756 1789
e 1756 1790
e 1756 1791
e 1756 1792
e 1756 1793
e 1756 1794
e 1756 1795
e 1756 1796
e 1797 1798
e 1797 1799
e 1797 1800
e 1797 1801
e 1797 1802
e 1797 1803
e 1797 1804
e 1797 1805
e 1797 1806
e 1797 1807
e 1797 1808
e 1797 1809
e 1797 1810
e 1797 1811
e 1797 1812
e 1797 1813
e 1797 1814
e 1797 1815
e 1797 1816
e 1797 1817
e 1797 1818
e 1797 1819
e 1797 1820
e 1797 1821
e 1797 1822
e 1797 1823
e 1797 1824
e 1797 1825
e 1826 1827
e 1826 1828
e 1826 1829
e 1826 1830
e 1826 1831
e 1826 1832
e 1826 1833
e 1826 1834
e 1826 1835
e 1826 1836
e 1826 1837
e 1826 1838
e 1826 1839
e 1826 1840
e 1826 1841
e 1826 1842
e 1826 1843
e 1826 1844
e 1826 1845
e 1826 1846
e 1826 1847
e 1848 1849
e 1848 1850
e 1848 1851
e 1848 1852
e 1848 1853
e 1848 1854
e 1848 1855
e 1848 1856
e 1848 1857
e 1848 1858
e 1848 1859
e 1848 1860
e 1848 1861
e 1848 1862
e 1848 1863
e 1848 1864
e 1848 1865
e 1848 1866
e 1848 1867
e 1848 1868
e 1848 1869
e 1848 1870
e 1848 1871
e 1848 1872
e 1848 1873
e 1848 1874
e 1848 1875
e 1848 1876
e 1877 1878
e 1877 1879
e 1877 1880
e 1877 1881
e 1877 1882
e 1877 1883
e 1877 1884
e 1877 1885
e 1877 1886
e 1877 1887
e 1877 1888
e 1877 1889
e 1877 1890
e 1877 1891
e 1877 1892
e 1877 1893
e 1877 1894
e 1877 1895
e 1877 1896
e 1877 1897
e 1877 1898
e 1877 1899
e 1877 1900
e 1877 1901
e 1877 1902
e 1877 1903
e 1877 1904
e 1877 1905
e 1877 1906
e 1877 1907
e 1877 1908
e 1877 1909
e 1877 1910
e 1877 1911
e 1877 1912
e 1877 1913
e 1877 1914
e 1877 1915
e 1877 1916
e 1877 1917
e 1918 1919
e 1918 1920
e 1918 1921
e 1918 1922
e 1918 1923
e 1918 1924
e 1918 1925
e 1918 1926
e 1918 1927
e 1918 1928
e 1918 1929
e 1918 1930
e 1918 1931
e 1918 1932
e 1918 1933
e 1918 1934
e 1918 1935
e 1918 1936
e 1918 1937
e 1918 1938
e 1918 1939
e 1918 1940
e 1918 1941
e 1918 1942
e 1918 1943
e 1918 1944
e 1945 1946
e 1945 1947
e 1945 1948
e 1945 1949
e 1945 1950
e 1945 1951
e 1945 1952
e 1945 1953
e 1945 1954
e 1945 1955
e 1945 1956
e 1945 1957
e 1945 1958
e 1945 1959
e 1945 1960
e 1945 1961
e 1945 1962
e 1945 1963
e 1945 1964
e 1945 1965
e 1945 1966
e 1945 1967
e 1945 1968
e 1945 1969
e 1945 1970
e 1945 1971
e 1945 1972
e 1945 1973
e 1945 1974
e 1945 1975
